\ENCODING=ISO-8859-1
\Problem name: IloCplex

Minimize
 obj1: X_1 + X_2 + X_3 + X_4 + X_5 + X_6 + X_7 + X_8 + X_9 + X_10 + X_11 + X_12
       + X_13 + X_14 + X_15 + X_16 + X_17 + X_18 + X_19 + X_20 + X_21 + X_22
       + X_23 + X_24 + X_25 + X_26 + X_27 + X_28 + X_29 + X_30 + X_31 + X_32
       + X_33 + X_34 + X_35 + X_36 + X_37 + X_38 + X_39 + X_40 + X_41 + X_42
       + X_43 + X_44 + X_45 + X_46 + X_47 + X_48 + X_49 + X_50 + X_51 + X_52
       + X_53 + X_54 + X_55 + X_56 + X_57 + X_58
Subject To
 c1:  3 X_1 >= 5
 c2:  2 X_2 >= 3
 c3:  2 X_3 >= 1
 c4:  2 X_4 >= 4
 c5:  X_5 >= 2
 c6:  X_6 >= 1
 c7:  3 X_7 >= 3
 c8:  4 X_8 >= 3
 c9:  3 X_9 >= 2
 c10: 4 X_10 >= 3
 c11: X_11 >= 2
 c12: 5 X_12 >= 2
 c13: 3 X_13 >= 2
 c14: X_14 >= 5
 c15: X_15 >= 1
 c16: X_16 >= 1
 c17: 3 X_17 >= 2
 c18: X_18 >= 2
 c19: X_19 >= 2
 c20: 2 X_20 >= 4
 c21: 3 X_21 >= 3
 c22: 2 X_22 >= 3
 c23: 2 X_23 >= 1
 c24: 6 X_24 >= 2
 c25: 2 X_25 >= 1
 c26: 2 X_26 >= 2
 c27: 5 X_27 >= 1
 c28: 5 X_28 >= 3
 c29: 2 X_29 >= 1
 c30: 5 X_30 >= 1
 c31: 3 X_31 >= 3
 c32: 2 X_32 >= 3
 c33: X_33 >= 3
 c34: X_34 >= 3
 c35: 4 X_35 >= 2
 c36: 6 X_36 >= 2
 c37: 4 X_37 >= 1
 c38: 3 X_38 >= 2
 c39: 2 X_39 >= 2
 c40: 3 X_40 >= 1
 c41: 7 X_41 >= 1
 c42: X_42 >= 4
 c43: 3 X_43 >= 1
 c44: 5 X_44 >= 1
 c45: 2 X_45 >= 3
 c46: X_46 >= 2
 c47: X_47 >= 2
 c48: 4 X_48 >= 1
 c49: 3 X_49 >= 4
 c50: X_50 >= 1
 c51: 2 X_51 >= 1
 c52: X_52 >= 1
 c53: X_53 >= 2
 c54: X_54 >= 1
 c55: 2 X_55 >= 2
 c56: X_56 >= 1
 c57: 2 X_57 >= 1
 c58: 6 X_58 >= 1
End
